% Generated by MiniZinc 2.9.3
% Solver library: /home/icwmmarijnisse/Pumpkin/minizinc/lib
% Command line invocation: minizinc --compile --fzn ./instance.fzn --ozn ./instance.ozn --solver pumpkin ../../../../benchmarks/models/tsp/instances/tsp.mzn ../../../../benchmarks/models/tsp/instances/TSP_N5_4.dzn 

predicate pumpkin_circuit(array [int] of var int: x);
array [1..5] of int: X_INTRODUCED_23_ = [0,826,164,715,433];
array [1..5] of int: X_INTRODUCED_25_ = [826,0,349,285,160];
array [1..5] of int: X_INTRODUCED_27_ = [164,349,0,221,981];
array [1..5] of int: X_INTRODUCED_29_ = [715,285,221,0,782];
array [1..5] of int: X_INTRODUCED_31_ = [433,160,981,782,0];
array [1..6] of int: X_INTRODUCED_34_ = [1,-1,-1,-1,-1,-1];
var 1..5: X_INTRODUCED_16_;
var 1..5: X_INTRODUCED_17_;
var 1..5: X_INTRODUCED_18_;
var 1..5: X_INTRODUCED_19_;
var 1..5: X_INTRODUCED_20_;
var 0..4396: Objective:: output_var:: is_defined_var;
var 0..826: X_INTRODUCED_24_ ::var_is_introduced :: is_defined_var;
var 0..826: X_INTRODUCED_26_ ::var_is_introduced :: is_defined_var;
var 0..981: X_INTRODUCED_28_ ::var_is_introduced :: is_defined_var;
var 0..782: X_INTRODUCED_30_ ::var_is_introduced :: is_defined_var;
var 0..981: X_INTRODUCED_32_ ::var_is_introduced :: is_defined_var;
array [1..5] of var int: Successor:: output_array([1..5]) = [X_INTRODUCED_16_,X_INTRODUCED_17_,X_INTRODUCED_18_,X_INTRODUCED_19_,X_INTRODUCED_20_];
constraint pumpkin_circuit(Successor);
constraint array_int_element(X_INTRODUCED_16_,X_INTRODUCED_23_,X_INTRODUCED_24_):: defines_var(X_INTRODUCED_24_);
constraint array_int_element(X_INTRODUCED_17_,X_INTRODUCED_25_,X_INTRODUCED_26_):: defines_var(X_INTRODUCED_26_);
constraint array_int_element(X_INTRODUCED_18_,X_INTRODUCED_27_,X_INTRODUCED_28_):: defines_var(X_INTRODUCED_28_);
constraint array_int_element(X_INTRODUCED_19_,X_INTRODUCED_29_,X_INTRODUCED_30_):: defines_var(X_INTRODUCED_30_);
constraint array_int_element(X_INTRODUCED_20_,X_INTRODUCED_31_,X_INTRODUCED_32_):: defines_var(X_INTRODUCED_32_);
constraint int_lin_eq(X_INTRODUCED_34_,[Objective,X_INTRODUCED_24_,X_INTRODUCED_26_,X_INTRODUCED_28_,X_INTRODUCED_30_,X_INTRODUCED_32_],0):: defines_var(Objective);
solve  minimize Objective;
